
Welcome to IBM(R) ILOG(R) CPLEX(R) Interactive Optimizer 22.1.1.0
  with Simplex, Mixed Integer & Barrier Optimizers
5725-A06 5725-A29 5724-Y48 5724-Y49 5724-Y54 5724-Y55 5655-Y21
Copyright IBM Corp. 1988, 2022.  All Rights Reserved.

Type 'help' for a list of available commands.
Type 'help' followed by a command name for more
information on commands.

CPLEX> Selected objective sense:  MINIMIZE
Selected objective  name:  00000000
Selected RHS        name:  RHS1
Selected bound      name:  BOUND
Problem 'ee.mps' read.
Read time = 0.02 sec. (3.17 ticks)
CPLEX> New value for time limit in seconds: 7200
CPLEX> New value for parallel optimization mode: -1
CPLEX> New value for default parallel thread count: 40
CPLEX> New value for mixed integer optimality gap tolerance: 1e-13
CPLEX> Version identifier: 22.1.1.0 | 2022-11-28 | 9160aff4d
CPXPARAM_Threads                                 40
CPXPARAM_Parallel                                -1
CPXPARAM_TimeLimit                               7200
CPXPARAM_MIP_Tolerances_MIPGap                   1e-13
Found incumbent of value 0.000000 after 0.00 sec. (0.31 ticks)
Tried aggregator 2 times.
MIP Presolve eliminated 182 rows and 2745 columns.
MIP Presolve modified 6090 coefficients.
Aggregator did 713 substitutions.
Reduced MIP has 3636 rows, 7840 columns, and 28954 nonzeros.
Reduced MIP has 7840 binaries, 0 generals, 0 SOSs, and 0 indicators.
Presolve time = 0.07 sec. (69.14 ticks)
Probing time = 0.03 sec. (5.33 ticks)
Tried aggregator 1 time.
Detecting symmetries...
Reduced MIP has 3636 rows, 7840 columns, and 28954 nonzeros.
Reduced MIP has 7840 binaries, 0 generals, 0 SOSs, and 0 indicators.
Presolve time = 0.02 sec. (22.10 ticks)
Probing time = 0.02 sec. (5.12 ticks)
Clique table members: 18788.
MIP emphasis: balance optimality and feasibility.
MIP search method: dynamic search.
Parallel mode: opportunistic, using up to 40 threads.
Root relaxation solution time = 0.13 sec. (107.34 ticks)

        Nodes                                         Cuts/
   Node  Left     Objective  IInf  Best Integer    Best Bound    ItCnt     Gap

*     0+    0                            0.0000  -1.54000e+13              --- 
*     0+    0                      -3.60000e+12  -1.54000e+13           327.78%
*     0+    0                      -4.80000e+12  -1.54000e+13           220.83%
*     0+    0                      -6.00000e+12  -1.54000e+13           156.67%
*     0+    0                      -6.99000e+12  -1.54000e+13           120.31%
*     0+    0                      -7.20000e+12  -1.54000e+13           113.89%
      0     0  -1.53900e+13   118  -7.20000e+12  -1.53900e+13     2529  113.75%
*     0+    0                      -1.53900e+13  -1.53900e+13             0.00%
      0     0  -1.53900e+13   180  -1.53900e+13     Cuts: 108     3191    0.00%
*     0+    0                      -1.53900e+13  -1.53900e+13             0.00%
      0     0  -1.53900e+13   273  -1.53900e+13     Cuts: 112     3552    0.00%
*     0+    0                      -1.53900e+13  -1.53900e+13             0.00%
*     0+    0                      -1.53900e+13  -1.53900e+13             0.00%
*     0+    0                      -1.53900e+13  -1.53900e+13             0.00%
      0    13    infeasible        -1.53900e+13  -1.53900e+13     7540    0.00%
Elapsed time = 2.31 sec. (1363.41 ticks, tree = 0.02 MB, solutions = 13)
     98    44        cutoff        -1.53900e+13  -1.53900e+13    29027    0.00%
    258    58        cutoff        -1.53900e+13  -1.53900e+13    44921    0.00%
    503    37  -1.53900e+13    40  -1.53900e+13  -1.53900e+13   256231    0.00%
    809    33  -1.53900e+13    94  -1.53900e+13  -1.53900e+13   254771    0.00%
   1292    33  -1.53900e+13   144  -1.53900e+13  -1.53900e+13   254871    0.00%
   1857    40        cutoff        -1.53900e+13  -1.53900e+13   263041    0.00%
   2543    55  -1.53900e+13    27  -1.53900e+13  -1.53900e+13   256926    0.00%
   3390    66        cutoff        -1.53900e+13  -1.53900e+13   300675    0.00%
   4373   119        cutoff        -1.53900e+13  -1.53900e+13   332578    0.00%
   8990   427  -1.53900e+13   101  -1.53900e+13  -1.53900e+13   444944    0.00%
Elapsed time = 9.80 sec. (4469.81 ticks, tree = 9.06 MB, solutions = 13)
  12524   529  -1.53900e+13    27  -1.53900e+13  -1.53900e+13   474244    0.00%
  14168   704        cutoff        -1.53900e+13  -1.53900e+13   592640    0.00%

Performing restart 1

Repeating presolve.
Tried aggregator 2 times.
MIP Presolve eliminated 29 rows and 19 columns.
MIP Presolve modified 1865 coefficients.
Aggregator did 3 substitutions.
Reduced MIP has 3528 rows, 7818 columns, and 28286 nonzeros.
Reduced MIP has 7818 binaries, 0 generals, 0 SOSs, and 0 indicators.
Presolve time = 0.05 sec. (39.89 ticks)
Tried aggregator 2 times.
MIP Presolve eliminated 10 rows and 39 columns.
MIP Presolve modified 28 coefficients.
Aggregator did 17 substitutions.
Reduced MIP has 3501 rows, 7756 columns, and 28060 nonzeros.
Reduced MIP has 7756 binaries, 0 generals, 0 SOSs, and 0 indicators.
Presolve time = 0.05 sec. (54.30 ticks)
Represolve time = 0.23 sec. (156.10 ticks)
  14185     0  -1.53900e+13   320  -1.53900e+13      Cuts: 23   704184    0.00%
  14185     0  -1.53900e+13   284  -1.53900e+13      Cuts: 32   704816    0.00%
  14185     0  -1.53900e+13   319  -1.53900e+13      Cuts: 22   705051    0.00%
  14185     0  -1.53900e+13   295  -1.53900e+13      Cuts: 28   705690    0.00%
  14185     0  -1.53900e+13   271  -1.53900e+13      Cuts: 34   705837    0.00%
  14185     0  -1.53900e+13   279  -1.53900e+13      Cuts: 12   706011    0.00%
  14185     0  -1.53900e+13   350  -1.53900e+13   ZeroHalf: 8   706054    0.00%
  14185     9    infeasible        -1.53900e+13  -1.53900e+13   748787    0.00%
  15633    90        cutoff        -1.53900e+13  -1.53900e+13   790479    0.00%
  17706    95        cutoff        -1.53900e+13  -1.53900e+13   788493    0.00%
  19002    98  -1.53900e+13    32  -1.53900e+13  -1.53900e+13   791647    0.00%

GUB cover cuts applied:  4
Clique cuts applied:  16
Cover cuts applied:  234
Mixed integer rounding cuts applied:  12
Zero-half cuts applied:  41
Lift and project cuts applied:  4
Gomory fractional cuts applied:  16

Root node processing (before b&c):
  Real time             =    1.43 sec. (1360.03 ticks)
Parallel b&c, 40 threads:
  Real time             =   19.84 sec. (11956.42 ticks)
  Sync time (average)   =    7.62 sec.
  Wait time (average)   =    0.10 sec.
                          ------------
Total (root+branch&cut) =   21.27 sec. (13316.45 ticks)

Solution pool: 13 solutions saved.

MIP - Integer optimal solution:  Objective = -1.5389998189e+13
Solution time =   21.37 sec.  Iterations = 962447  Nodes = 19250
Deterministic time = 13316.48 ticks  (623.11 ticks/sec)

CPLEX> Solution 'p14' written to file 'ee.sol'.
CPLEX> 